NAME /Users/henri/Research/solvers/instances/idol-instances/robust/collection/spp_dkp_Lefebvre_et_al_2026/shortest_path_5_6/uncertainty_sets/discrete_knapsack
ROWS
 N  OBJ
 L  primal_lower
COLUMNS
    MARKER    'MARKER'                 'INTORG'
    y[0,1]     OBJ        0
    y[0,1]     primal_lower -0.1
    y[0,2]     OBJ        0
    y[0,2]     primal_lower -5.13
    y[0,3]     OBJ        0
    y[0,3]     primal_lower -1.64
    y[0,4]     OBJ        0
    y[0,4]     primal_lower -1.72
    y[1,0]     OBJ        0
    y[1,0]     primal_lower -4.55
    y[1,3]     OBJ        0
    y[1,3]     primal_lower -1.87
    y[1,4]     OBJ        0
    y[1,4]     primal_lower -4.97
    y[2,0]     OBJ        0
    y[2,0]     primal_lower -2.57
    y[2,3]     OBJ        0
    y[2,3]     primal_lower -3.15
    y[2,4]     OBJ        0
    y[2,4]     primal_lower -2.05
    y[3,0]     OBJ        0
    y[3,0]     primal_lower -0.65
    y[3,1]     OBJ        0
    y[3,1]     primal_lower -0.82
    y[3,2]     OBJ        0
    y[3,2]     primal_lower -2.56
    y[4,0]     OBJ        0
    y[4,0]     primal_lower -4.21
    y[4,1]     OBJ        0
    y[4,1]     primal_lower -2.65
    y[4,2]     OBJ        0
    y[4,2]     primal_lower -3.41
    u[0,1]     OBJ        0
    u[0,1]     primal_lower 51
    u[0,2]     OBJ        0
    u[0,2]     primal_lower 25
    u[0,3]     OBJ        0
    u[0,3]     primal_lower 23
    u[0,4]     OBJ        0
    u[0,4]     primal_lower 10
    u[1,0]     OBJ        0
    u[1,0]     primal_lower 33
    u[1,3]     OBJ        0
    u[1,3]     primal_lower 67
    u[1,4]     OBJ        0
    u[1,4]     primal_lower 78
    u[2,0]     OBJ        0
    u[2,0]     primal_lower 75
    u[2,3]     OBJ        0
    u[2,3]     primal_lower 83
    u[2,4]     OBJ        0
    u[2,4]     primal_lower 33
    u[3,0]     OBJ        0
    u[3,0]     primal_lower 49
    u[3,1]     OBJ        0
    u[3,1]     primal_lower 92
    u[3,2]     OBJ        0
    u[3,2]     primal_lower 36
    u[4,0]     OBJ        0
    u[4,0]     primal_lower 9
    u[4,1]     OBJ        0
    u[4,1]     primal_lower 83
    u[4,2]     OBJ        0
    u[4,2]     primal_lower 63
    MARKER    'MARKER'                 'INTEND'
RHS
    RHS       primal_lower 92
BOUNDS
 LI BND       y[0,1]     0
 UI BND       y[0,1]     1
 LI BND       y[0,2]     0
 UI BND       y[0,2]     1
 LI BND       y[0,3]     0
 UI BND       y[0,3]     1
 LI BND       y[0,4]     0
 UI BND       y[0,4]     1
 LI BND       y[1,0]     0
 UI BND       y[1,0]     1
 LI BND       y[1,3]     0
 UI BND       y[1,3]     1
 LI BND       y[1,4]     0
 UI BND       y[1,4]     1
 LI BND       y[2,0]     0
 UI BND       y[2,0]     1
 LI BND       y[2,3]     0
 UI BND       y[2,3]     1
 LI BND       y[2,4]     0
 UI BND       y[2,4]     1
 LI BND       y[3,0]     0
 UI BND       y[3,0]     1
 LI BND       y[3,1]     0
 UI BND       y[3,1]     1
 LI BND       y[3,2]     0
 UI BND       y[3,2]     1
 LI BND       y[4,0]     0
 UI BND       y[4,0]     1
 LI BND       y[4,1]     0
 UI BND       y[4,1]     1
 LI BND       y[4,2]     0
 UI BND       y[4,2]     1
 LI BND       u[0,1]     0
 UI BND       u[0,1]     1
 LI BND       u[0,2]     0
 UI BND       u[0,2]     1
 LI BND       u[0,3]     0
 UI BND       u[0,3]     1
 LI BND       u[0,4]     0
 UI BND       u[0,4]     1
 LI BND       u[1,0]     0
 UI BND       u[1,0]     1
 LI BND       u[1,3]     0
 UI BND       u[1,3]     1
 LI BND       u[1,4]     0
 UI BND       u[1,4]     1
 LI BND       u[2,0]     0
 UI BND       u[2,0]     1
 LI BND       u[2,3]     0
 UI BND       u[2,3]     1
 LI BND       u[2,4]     0
 UI BND       u[2,4]     1
 LI BND       u[3,0]     0
 UI BND       u[3,0]     1
 LI BND       u[3,1]     0
 UI BND       u[3,1]     1
 LI BND       u[3,2]     0
 UI BND       u[3,2]     1
 LI BND       u[4,0]     0
 UI BND       u[4,0]     1
 LI BND       u[4,1]     0
 UI BND       u[4,1]     1
 LI BND       u[4,2]     0
 UI BND       u[4,2]     1
ENDATA
